Route #1: 26 5 14 3 24
Route #2: 16 4 17 1 25
Route #3: 29 23
Route #4: 30
Route #5: 19 2 8 22 6 20
Route #6: 27 7 12 18 10
Route #7: 21 11 13 9 28 15
Cost 379
Time 0.051447
Tempo = 0.06093989999499172